(set-logic QF_S)
(declare-fun var0 () String)
(assert (RegexIn var0 (RegexConcat (RegexUnion (RegexStar (Str2Reg "00")) (RegexStar (Str2Reg "1"))) (RegexConcat (RegexPlus (RegexStar (Str2Reg "222"))) (RegexConcat (RegexUnion (RegexStar (Str2Reg "333")) (RegexStar (Str2Reg "4"))) (RegexConcat (RegexPlus (RegexStar (Str2Reg "5"))) (RegexConcat (RegexStar (RegexStar (Str2Reg "666"))) (RegexConcat (RegexStar (RegexPlus (Str2Reg "77"))) (RegexConcat (RegexPlus (RegexStar (Str2Reg "88"))) (RegexConcat (RegexPlus (RegexStar (Str2Reg "99"))) (RegexConcat (RegexPlus (RegexUnion (Str2Reg "aaa") (Str2Reg "b"))) (RegexConcat (RegexUnion (RegexStar (Str2Reg "c")) (RegexStar (Str2Reg "dd"))) (RegexConcat (RegexUnion (RegexUnion (Str2Reg "ee") (Str2Reg "ff")) (RegexUnion (Str2Reg "gg") (Str2Reg "h"))) (RegexConcat (RegexUnion (RegexPlus (Str2Reg "iii")) (RegexPlus (Str2Reg "j"))) (RegexConcat (RegexStar (RegexPlus (Str2Reg "k"))) (RegexConcat (RegexStar (RegexUnion (Str2Reg "l") (Str2Reg "mmm"))) (RegexConcat (RegexStar (RegexUnion (Str2Reg "n") (Str2Reg "oo"))) (RegexConcat (RegexUnion (RegexStar (Str2Reg "p")) (RegexStar (Str2Reg "qqq"))) (RegexConcat (RegexStar (RegexPlus (Str2Reg "r"))) (RegexConcat (RegexStar (RegexUnion (Str2Reg "ss") (Str2Reg "ttt"))) (RegexConcat (RegexUnion (RegexStar (Str2Reg "uuu")) (RegexStar (Str2Reg "vvv"))) (RegexConcat (RegexPlus (RegexUnion (Str2Reg "ww") (Str2Reg "xxx"))) (RegexConcat (RegexPlus (RegexPlus (Str2Reg "yy"))) (RegexConcat (RegexUnion (RegexStar (Str2Reg "zzz")) (RegexStar (Str2Reg "AA"))) (RegexConcat (RegexPlus (RegexPlus (Str2Reg "B"))) (RegexConcat (RegexUnion (RegexStar (Str2Reg "CC")) (RegexStar (Str2Reg "D"))) (RegexConcat (RegexUnion (RegexUnion (Str2Reg "E") (Str2Reg "FFF")) (RegexUnion (Str2Reg "GG") (Str2Reg "HHH"))) (RegexConcat (RegexStar (RegexUnion (Str2Reg "I") (Str2Reg "JJJ"))) (RegexConcat (RegexUnion (RegexUnion (Str2Reg "K") (Str2Reg "LL")) (RegexUnion (Str2Reg "MMM") (Str2Reg "NN"))) (RegexConcat (RegexPlus (RegexPlus (Str2Reg "OO"))) (RegexConcat (RegexPlus (RegexUnion (Str2Reg "PPP") (Str2Reg "QQQ"))) (RegexConcat (RegexUnion (RegexPlus (Str2Reg "RRR")) (RegexPlus (Str2Reg "S"))) (RegexConcat (RegexPlus (RegexUnion (Str2Reg "TT") (Str2Reg "UU"))) (RegexConcat (RegexUnion (RegexUnion (Str2Reg "VVV") (Str2Reg "WWW")) (RegexUnion (Str2Reg "XXX") (Str2Reg "YYY"))) (RegexConcat (RegexPlus (RegexUnion (Str2Reg "Z") (Str2Reg "!"))) (RegexConcat (RegexUnion (RegexStar (Str2Reg "\"")) (RegexStar (Str2Reg "###"))) (RegexConcat (RegexPlus (RegexUnion (Str2Reg "$") (Str2Reg "%%%"))) (RegexConcat (RegexPlus (RegexUnion (Str2Reg "&&") (Str2Reg "'''"))) (RegexConcat (RegexUnion (RegexPlus (Str2Reg "((")) (RegexPlus (Str2Reg ")))"))) (RegexConcat (RegexUnion (RegexStar (Str2Reg "**")) (RegexStar (Str2Reg "+"))) (RegexConcat (RegexUnion (RegexPlus (Str2Reg ",,,")) (RegexPlus (Str2Reg "---"))) (RegexConcat (RegexPlus (RegexUnion (Str2Reg "...") (Str2Reg "///"))) (RegexConcat (RegexUnion (RegexPlus (Str2Reg ":::")) (RegexPlus (Str2Reg ";;;"))) (RegexConcat (RegexUnion (RegexUnion (Str2Reg "<") (Str2Reg "===")) (RegexUnion (Str2Reg ">") (Str2Reg "???"))) (RegexConcat (RegexPlus (RegexPlus (Str2Reg "@@@"))) (RegexConcat (RegexPlus (RegexUnion (Str2Reg "[") (Str2Reg "\\"))) (RegexConcat (RegexStar (RegexPlus (Str2Reg "]"))) (RegexConcat (RegexUnion (RegexUnion (Str2Reg "^^") (Str2Reg "_")) (RegexUnion (Str2Reg "```") (Str2Reg "{{{"))) (RegexConcat (RegexPlus (RegexStar (Str2Reg "||"))) (RegexConcat (RegexStar (RegexStar (Str2Reg "}"))) (RegexConcat (RegexUnion (RegexPlus (Str2Reg "~~~")) (RegexPlus (Str2Reg "00"))) (RegexConcat (RegexUnion (RegexUnion (Str2Reg "111") (Str2Reg "2")) (RegexUnion (Str2Reg "333") (Str2Reg "4"))) (RegexConcat (RegexStar (RegexPlus (Str2Reg "55"))) (RegexConcat (RegexStar (RegexPlus (Str2Reg "666"))) (RegexConcat (RegexPlus (RegexStar (Str2Reg "777"))) (RegexConcat (RegexPlus (RegexPlus (Str2Reg "888"))) (RegexConcat (RegexUnion (RegexUnion (Str2Reg "999") (Str2Reg "a")) (RegexUnion (Str2Reg "b") (Str2Reg "ccc"))) (RegexConcat (RegexPlus (RegexStar (Str2Reg "ddd"))) (RegexConcat (RegexStar (RegexPlus (Str2Reg "eee"))) (RegexConcat (RegexUnion (RegexUnion (Str2Reg "f") (Str2Reg "gg")) (RegexUnion (Str2Reg "h") (Str2Reg "iii"))) (RegexConcat (RegexUnion (RegexStar (Str2Reg "jj")) (RegexStar (Str2Reg "k"))) (RegexConcat (RegexUnion (RegexStar (Str2Reg "ll")) (RegexStar (Str2Reg "mmm"))) (RegexConcat (RegexStar (RegexStar (Str2Reg "n"))) (RegexConcat (RegexStar (RegexStar (Str2Reg "oo"))) (RegexConcat (RegexStar (RegexStar (Str2Reg "pp"))) (RegexConcat (RegexUnion (RegexUnion (Str2Reg "qq") (Str2Reg "r")) (RegexUnion (Str2Reg "ss") (Str2Reg "tt"))) (RegexConcat (RegexStar (RegexStar (Str2Reg "uuu"))) (RegexConcat (RegexPlus (RegexUnion (Str2Reg "vvv") (Str2Reg "ww"))) (RegexConcat (RegexPlus (RegexPlus (Str2Reg "x"))) (RegexConcat (RegexStar (RegexStar (Str2Reg "yyy"))) (RegexConcat (RegexUnion (RegexStar (Str2Reg "z")) (RegexStar (Str2Reg "AAA"))) (RegexConcat (RegexStar (RegexStar (Str2Reg "BBB"))) (RegexConcat (RegexStar (RegexStar (Str2Reg "C"))) (RegexConcat (RegexUnion (RegexStar (Str2Reg "D")) (RegexStar (Str2Reg "E"))) (RegexConcat (RegexPlus (RegexStar (Str2Reg "FF"))) (RegexConcat (RegexPlus (RegexStar (Str2Reg "G"))) (RegexConcat (RegexStar (RegexUnion (Str2Reg "HHH") (Str2Reg "I"))) (RegexConcat (RegexStar (RegexStar (Str2Reg "J"))) (RegexConcat (RegexStar (RegexUnion (Str2Reg "KK") (Str2Reg "L"))) (RegexConcat (RegexUnion (RegexStar (Str2Reg "M")) (RegexStar (Str2Reg "NNN"))) (RegexConcat (RegexStar (RegexPlus (Str2Reg "OOO"))) (RegexConcat (RegexStar (RegexPlus (Str2Reg "PPP"))) (RegexConcat (RegexPlus (RegexStar (Str2Reg "QQQ"))) (RegexConcat (RegexUnion (RegexPlus (Str2Reg "RR")) (RegexPlus (Str2Reg "S"))) (RegexConcat (RegexPlus (RegexStar (Str2Reg "T"))) (RegexConcat (RegexPlus (RegexPlus (Str2Reg "U"))) (RegexConcat (RegexPlus (RegexPlus (Str2Reg "VVV"))) (RegexConcat (RegexStar (RegexPlus (Str2Reg "WWW"))) (RegexConcat (RegexUnion (RegexUnion (Str2Reg "X") (Str2Reg "YY")) (RegexUnion (Str2Reg "Z") (Str2Reg "!!!"))) (RegexConcat (RegexStar (RegexUnion (Str2Reg "\"") (Str2Reg "##"))) (RegexConcat (RegexUnion (RegexStar (Str2Reg "$$$")) (RegexStar (Str2Reg "%"))) (RegexConcat (RegexPlus (RegexUnion (Str2Reg "&") (Str2Reg "''"))) (RegexConcat (RegexUnion (RegexStar (Str2Reg "(")) (RegexStar (Str2Reg ")"))) (RegexConcat (RegexUnion (RegexPlus (Str2Reg "**")) (RegexPlus (Str2Reg "+++"))) (RegexConcat (RegexPlus (RegexUnion (Str2Reg ",,,") (Str2Reg "--"))) (RegexConcat (RegexPlus (RegexStar (Str2Reg "..."))) (RegexConcat (RegexPlus (RegexUnion (Str2Reg "//") (Str2Reg "::"))) (RegexConcat (RegexPlus (RegexStar (Str2Reg ";;"))) (RegexConcat (RegexPlus (RegexStar (Str2Reg "<<"))) (RegexConcat (RegexStar (RegexUnion (Str2Reg "=") (Str2Reg ">>>"))) (RegexConcat (RegexPlus (RegexUnion (Str2Reg "??") (Str2Reg "@@@"))) (RegexConcat (RegexUnion (RegexPlus (Str2Reg "[[")) (RegexPlus (Str2Reg "\\\\\\"))) (RegexConcat (RegexPlus (RegexStar (Str2Reg "]"))) (RegexConcat (RegexUnion (RegexPlus (Str2Reg "^^^")) (RegexPlus (Str2Reg "__"))) (RegexConcat (RegexStar (RegexUnion (Str2Reg "`") (Str2Reg "{{"))) (RegexConcat (RegexUnion (RegexUnion (Str2Reg "|||") (Str2Reg "}}}")) (RegexUnion (Str2Reg "~~~") (Str2Reg "000"))) (RegexConcat (RegexStar (RegexStar (Str2Reg "11"))) (RegexConcat (RegexStar (RegexUnion (Str2Reg "222") (Str2Reg "33"))) (RegexConcat (RegexPlus (RegexPlus (Str2Reg "444"))) (RegexConcat (RegexUnion (RegexUnion (Str2Reg "5") (Str2Reg "6")) (RegexUnion (Str2Reg "777") (Str2Reg "888"))) (RegexConcat (RegexStar (RegexPlus (Str2Reg "99"))) (RegexConcat (RegexUnion (RegexUnion (Str2Reg "a") (Str2Reg "bb")) (RegexUnion (Str2Reg "c") (Str2Reg "dd"))) (RegexConcat (RegexStar (RegexPlus (Str2Reg "ee"))) (RegexConcat (RegexUnion (RegexStar (Str2Reg "fff")) (RegexStar (Str2Reg "gg"))) (RegexConcat (RegexUnion (RegexStar (Str2Reg "hhh")) (RegexStar (Str2Reg "iii"))) (RegexConcat (RegexPlus (RegexUnion (Str2Reg "jj") (Str2Reg "k"))) (RegexConcat (RegexStar (RegexPlus (Str2Reg "lll"))) (RegexConcat (RegexUnion (RegexPlus (Str2Reg "m")) (RegexPlus (Str2Reg "nn"))) (RegexConcat (RegexStar (RegexPlus (Str2Reg "ooo"))) (RegexConcat (RegexStar (RegexStar (Str2Reg "pp"))) (RegexConcat (RegexStar (RegexPlus (Str2Reg "qqq"))) (RegexConcat (RegexPlus (RegexPlus (Str2Reg "rrr"))) (RegexConcat (RegexUnion (RegexStar (Str2Reg "s")) (RegexStar (Str2Reg "ttt"))) (RegexConcat (RegexStar (RegexPlus (Str2Reg "uu"))) (RegexConcat (RegexPlus (RegexStar (Str2Reg "v"))) (RegexConcat (RegexUnion (RegexStar (Str2Reg "www")) (RegexStar (Str2Reg "xxx"))) (RegexConcat (RegexStar (RegexPlus (Str2Reg "yy"))) (RegexConcat (RegexStar (RegexStar (Str2Reg "zz"))) (RegexUnion (RegexPlus (Str2Reg "A")) (RegexPlus (Str2Reg "B")))))))))))))))))))))))))))))))))))))))))))))))))))))))))))))))))))))))))))))))))))))))))))))))))))))))))))))))))))))))))))))))))))
(check-sat)